<?xml version = "1.0" encoding="UTF-8" standalone="yes"?>
<CPLEXSolution version="1.2">
 <header
   problemName=""
   objectiveValue="2.0952380952380953"
   solutionTypeValue="1"
   solutionTypeString="basic"
   solutionStatusValue="1"
   solutionStatusString="optimal"
   solutionMethodString="dual"
   primalFeasible="1"
   dualFeasible="1"
   simplexIterations="8"
   writeLevel="1"/>
 <quality
   epRHS="9.9999999999999995e-07"
   epOpt="9.9999999999999995e-07"
   maxPrimalInfeas="0"
   maxDualInfeas="0"
   maxPrimalResidual="2.7755575615628914e-15"
   maxDualResidual="7.6327832942979512e-17"
   maxX="0.57142857142857129"
   maxPi="0.095238095238095261"
   maxSlack="0.76190476190476186"
   maxRedCost="0"
   kappa="76.631578947368396"/>
 <linearConstraints>
  <constraint name="R0" index="0" status="BS" slack="-0.76190476190476186" dual="-0"/>
  <constraint name="R1" index="1" status="BS" slack="-0.23809523809523819" dual="-0"/>
  <constraint name="R2" index="2" status="BS" slack="-0.47619047619047633" dual="-0"/>
  <constraint name="R6" index="3" status="LL" slack="0" dual="0"/>
  <constraint name="R7" index="4" status="LL" slack="0" dual="0.047619047619047623"/>
  <constraint name="R8" index="5" status="LL" slack="0" dual="-0"/>
  <constraint name="c10" index="6" status="BS" slack="-0.38095238095238071" dual="-0"/>
  <constraint name="c11" index="7" status="BS" slack="-0.023809523809523947" dual="-0"/>
  <constraint name="c14" index="8" status="LL" slack="0" dual="0.047619047619047616"/>
  <constraint name="c15" index="9" status="BS" slack="-0.16666666666666696" dual="-0"/>
  <constraint name="c17" index="10" status="LL" slack="0" dual="0.095238095238095261"/>
  <constraint name="c18" index="11" status="LL" slack="0" dual="0.047619047619047568"/>
  <constraint name="c19" index="12" status="BS" slack="-0.28571428571428581" dual="-0"/>
  <constraint name="c20" index="13" status="BS" slack="-0.11904761904761885" dual="-0"/>
  <constraint name="c23" index="14" status="BS" slack="-0.19047619047619202" dual="-0"/>
  <constraint name="c24" index="15" status="BS" slack="-0.35714285714285676" dual="-0"/>
  <constraint name="c26" index="16" status="BS" slack="-0.19047619047619024" dual="-0"/>
  <constraint name="c27" index="17" status="BS" slack="-0.095238095238094234" dual="-0"/>
  <constraint name="c28" index="18" status="BS" slack="-0.38095238095238071" dual="-0"/>
 </linearConstraints>
 <variables>
  <variable name="x0" index="0" status="BS" value="0.26190476190476197" reducedCost="0"/>
  <variable name="x1" index="1" status="BS" value="0.52380952380952384" reducedCost="0"/>
  <variable name="x2" index="2" status="BS" value="0.40476190476190471" reducedCost="0"/>
  <variable name="x6" index="3" status="BS" value="0.57142857142857129" reducedCost="0"/>
  <variable name="x7" index="4" status="BS" value="0.047619047619047672" reducedCost="0"/>
  <variable name="x8" index="5" status="BS" value="0.28571428571428575" reducedCost="0"/>
 </variables>
 <objectiveValues>
  <objective index="0" name="" value="2.0952380952380953"/>
 </objectiveValues>
</CPLEXSolution>
